\ SCIP STATISTICS
\   Problem name     : CapacitatedFacilityLocation-20-10
\   Variables        : 210 (210 binary, 0 integer, 0 implicit integer, 0 continuous)
\   Constraints      : 231
Minimize
 Obj: +909.720629959117 x0 +1445.76608538944 x1 +964.52018610532 x2 +949.086576030623 x3 +1065.98730956292 x4
      +769.321357643726 x5 +877.382119009241 x6 +771.331477354788 x7 +435.917284659364 x8 +531.17230194109 x9
      +62.2924222468559 x10 +33.9158158468742 x11 +36.7370864908677 x12 +32.4022547466053 x13 +35.4182025695925 x14
      +44.0658956655397 x15 +16.5125625697395 x16 +52.6714924447112 x17 +33.445236394533 x18 +55.1316579195949 x19
      +27.0960469908307 x20 +45.8069037879686 x21 +42.8589792856638 x22 +29.2820512638427 x23 +34.0105325425989 x24
      +92.712231893945 x25 +54.5905831999834 x26 +43.3099570432997 x27 +27.6332416524564 x28 +45.3000333151447 x29
      +85.9265678058745 x30 +53.2444490126176 x31 +37.1131862773247 x32 +30.0725099461871 x33 +29.6995286193854 x34
      +85.1663871768982 x35 +12.4332135889048 x36 +69.1721325530741 x37 +24.8194142043648 x38 +74.4822473656703 x39
      +72.000284740413 x40 +69.6090104513904 x41 +20.300119833024 x42 +48.0838363109157 x43 +26.7336914325004 x44
      +41.5629470993492 x45 +28.0444216301919 x46 +45.5737690629619 x47 +36.8172928699489 x48 +49.4623193753655 x49
      +63.241385571351 x50 +39.9024858006146 x51 +35.5076314942144 x52 +36.0751224121808 x53 +35.5629503656051 x54
      +37.8206402607695 x55 +18.1006776721936 x56 +51.3539859712475 x57 +35.4105370716618 x58 +53.7446546606369 x59
      +144.574305601371 x60 +263.027388813225 x61 +85.7105373902132 x62 +191.548505949653 x63 +111.105359644299 x64
      +143.801692956054 x65 +183.492780146009 x66 +48.6579936977421 x67 +151.084987329041 x68 +48.9973895104031 x69
      +15.3088399880925 x70 +55.7199802781741 x71 +27.6020044809362 x72 +41.3423539599818 x73 +28.82267611167 x74
      +49.5576777086988 x75 +47.7640980246702 x76 +12.1367958125594 x77 +34.1929676232388 x78 +10.1217033586115 x79
      +35.0673767652118 x80 +144.425792585359 x81 +67.924343854707 x82 +103.411100138501 x83 +69.2482422595217 x84
      +138.401962010395 x85 +123.583395688491 x86 +27.8060018237647 x87 +83.3207123767774 x88 +24.6127626766214 x89
      +26.006397654908 x90 +85.2960106715323 x91 +56.2415858220659 x92 +68.7108176172244 x93 +56.4869530842353 x94
      +84.2039194579497 x95 +80.8940842903528 x96 +36.9243121806952 x97 +61.2703861768025 x98 +34.357928020285 x99
      +57.1467946350235 x100 +81.3623858545056 x101 +21.0018087278658 x102 +58.3784072441646 x103 +31.4483812246365 x104
      +35.3240828420979 x105 +49.298896576321 x106 +25.6859676409137 x107 +45.1612241211714 x108 +27.8749499077826 x109
      +78.2806307897303 x110 +49.6399807331699 x111 +97.6949198675054 x112 +57.1839310495199 x113 +84.5095867800381 x114
      +159.551725459107 x115 +93.5254199105834 x116 +104.274917599072 x117 +69.1191855030891 x118 +106.933601196429 x119
      +79.9103136583181 x120 +32.4476360964734 x121 +75.0690286297526 x122 +21.6743223580224 x123 +58.7724162744582 x124
      +147.449925085169 x125 +66.354800985378 x126 +92.8466030894168 x127 +38.1483744136025 x128 +97.4883648061958 x129
      +174.823244447196 x130 +124.99263801895 x131 +91.4163395277115 x132 +106.911177301822 x133 +95.3528351277161 x134
      +87.2005647441277 x135 +53.7266086518554 x136 +135.331777052282 x137 +100.094124891897 x138 +141.878837629142 x139
      +61.2108065101704 x140 +73.1955597763126 x141 +16.4731902919734 x142 +51.3779728842415 x143 +26.4187608742463 x144
      +33.4093670783034 x145 +38.1714000524382 x146 +32.7182249457881 x147 +39.041660412313 x148 +35.7934703499547 x149
      +290.456048166655 x150 +140.305370746276 x151 +186.631021089037 x152 +148.844833497752 x153 +176.625223597912 x154
      +228.197515094759 x155 +92.9569623416704 x156 +256.344018634486 x157 +161.297330850751 x158 +267.333666923747 x159
      +5.97659617005556 x160 +38.2895744789887 x161 +22.8178229928725 x162 +28.854865199163 x163 +22.3630267265797 x164
      +40.9248605734963 x165 +35.8287462002827 x166 +13.3127269264232 x167 +24.7035007648349 x168 +12.4033944030423 x169
      +59.5183899370101 x170 +44.7800466010485 x171 +26.1246065984771 x172 +34.7198664724075 x173 +27.7872170659896 x174
      +31.8942289625293 x175 +14.3620882549287 x176 +43.8644313521435 x177 +30.5759684721128 x178 +46.5287295771963 x179
      +284.240039275101 x180 +145.745944664917 x181 +175.521699832429 x182 +146.783263109671 x183 +167.576922930777 x184
      +212.005291740985 x185 +83.3416227568982 x186 +245.780511135676 x187 +155.446481886013 x188 +256.733857054485 x189
      +52.1090754589552 x190 +71.9374604280787 x191 +22.9537878636878 x192 +53.3896216316295 x193 +31.5702786487265 x194
      +24.1768628636283 x195 +44.1769956253441 x196 +25.8846629266237 x197 +42.7028104426209 x198 +27.2187054562444 x199
      +99.8785377808846 x200 +42.8031914806233 x201 +67.7135977212173 x202 +3.94946309602657 x203 +49.6196396489441 x204
      +147.472351342796 x205 +49.6564493428279 x206 +98.510868914579 x207 +25.1352251267653 x208 +104.926294291747 x209
Subject to
 c0: +1 x10 +1 x11 +1 x12 +1 x13 +1 x14 +1 x15 +1 x16 +1 x17 +1 x18 +1 x19 >= +1
 c1: +1 x20 +1 x21 +1 x22 +1 x23 +1 x24 +1 x25 +1 x26 +1 x27 +1 x28 +1 x29 >= +1
 c2: +1 x30 +1 x31 +1 x32 +1 x33 +1 x34 +1 x35 +1 x36 +1 x37 +1 x38 +1 x39 >= +1
 c3: +1 x40 +1 x41 +1 x42 +1 x43 +1 x44 +1 x45 +1 x46 +1 x47 +1 x48 +1 x49 >= +1
 c4: +1 x50 +1 x51 +1 x52 +1 x53 +1 x54 +1 x55 +1 x56 +1 x57 +1 x58 +1 x59 >= +1
 c5: +1 x60 +1 x61 +1 x62 +1 x63 +1 x64 +1 x65 +1 x66 +1 x67 +1 x68 +1 x69 >= +1
 c6: +1 x70 +1 x71 +1 x72 +1 x73 +1 x74 +1 x75 +1 x76 +1 x77 +1 x78 +1 x79 >= +1
 c7: +1 x80 +1 x81 +1 x82 +1 x83 +1 x84 +1 x85 +1 x86 +1 x87 +1 x88 +1 x89 >= +1
 c8: +1 x90 +1 x91 +1 x92 +1 x93 +1 x94 +1 x95 +1 x96 +1 x97 +1 x98 +1 x99 >= +1
 c9: +1 x100 +1 x101 +1 x102 +1 x103 +1 x104 +1 x105 +1 x106 +1 x107 +1 x108 +1 x109 >= +1
 c10: +1 x110 +1 x111 +1 x112 +1 x113 +1 x114 +1 x115 +1 x116 +1 x117 +1 x118 +1 x119 >= +1
 c11: +1 x120 +1 x121 +1 x122 +1 x123 +1 x124 +1 x125 +1 x126 +1 x127 +1 x128 +1 x129 >= +1
 c12: +1 x130 +1 x131 +1 x132 +1 x133 +1 x134 +1 x135 +1 x136 +1 x137 +1 x138 +1 x139 >= +1
 c13: +1 x140 +1 x141 +1 x142 +1 x143 +1 x144 +1 x145 +1 x146 +1 x147 +1 x148 +1 x149 >= +1
 c14: +1 x150 +1 x151 +1 x152 +1 x153 +1 x154 +1 x155 +1 x156 +1 x157 +1 x158 +1 x159 >= +1
 c15: +1 x160 +1 x161 +1 x162 +1 x163 +1 x164 +1 x165 +1 x166 +1 x167 +1 x168 +1 x169 >= +1
 c16: +1 x170 +1 x171 +1 x172 +1 x173 +1 x174 +1 x175 +1 x176 +1 x177 +1 x178 +1 x179 >= +1
 c17: +1 x180 +1 x181 +1 x182 +1 x183 +1 x184 +1 x185 +1 x186 +1 x187 +1 x188 +1 x189 >= +1
 c18: +1 x190 +1 x191 +1 x192 +1 x193 +1 x194 +1 x195 +1 x196 +1 x197 +1 x198 +1 x199 >= +1
 c19: +1 x200 +1 x201 +1 x202 +1 x203 +1 x204 +1 x205 +1 x206 +1 x207 +1 x208 +1 x209 >= +1
 c20: +7 x10 +11 x20 +15 x30 +12 x40 +7 x50 +33 x60 +7 x70 +20 x80 +9 x90 +11 x100 +14 x110 +17 x120 +20 x130
  +11 x140 +31 x150 +5 x160 +8 x170 +31 x180 +9 x190 +20 x200 -153 x0 <= +0
 c21: +7 x11 +11 x21 +15 x31 +12 x41 +7 x51 +33 x61 +7 x71 +20 x81 +9 x91 +11 x101 +14 x111 +17 x121 +20 x131
  +11 x141 +31 x151 +5 x161 +8 x171 +31 x181 +9 x191 +20 x201 -359 x1 <= +0
 c22: +7 x12 +11 x22 +15 x32 +12 x42 +7 x52 +33 x62 +7 x72 +20 x82 +9 x92 +11 x102 +14 x112 +17 x122 +20 x132
  +11 x142 +31 x152 +5 x162 +8 x172 +31 x182 +9 x192 +20 x202 -151 x2 <= +0
 c23: +7 x13 +11 x23 +15 x33 +12 x43 +7 x53 +33 x63 +7 x73 +20 x83 +9 x93 +11 x103 +14 x113 +17 x123 +20 x133
  +11 x143 +31 x153 +5 x163 +8 x173 +31 x183 +9 x193 +20 x203 -174 x3 <= +0
 c24: +7 x14 +11 x24 +15 x34 +12 x44 +7 x54 +33 x64 +7 x74 +20 x84 +9 x94 +11 x104 +14 x114 +17 x124 +20 x134
  +11 x144 +31 x154 +5 x164 +8 x174 +31 x184 +9 x194 +20 x204 -201 x4 <= +0
 c25: +7 x15 +11 x25 +15 x35 +12 x45 +7 x55 +33 x65 +7 x75 +20 x85 +9 x95 +11 x105 +14 x115 +17 x125 +20 x135
  +11 x145 +31 x155 +5 x165 +8 x175 +31 x185 +9 x195 +20 x205 -119 x5 <= +0
 c26: +7 x16 +11 x26 +15 x36 +12 x46 +7 x56 +33 x66 +7 x76 +20 x86 +9 x96 +11 x106 +14 x116 +17 x126 +20 x136
  +11 x146 +31 x156 +5 x166 +8 x176 +31 x186 +9 x196 +20 x206 -130 x6 <= +0
 c27: +7 x17 +11 x27 +15 x37 +12 x47 +7 x57 +33 x67 +7 x77 +20 x87 +9 x97 +11 x107 +14 x117 +17 x127 +20 x137
  +11 x147 +31 x157 +5 x167 +8 x177 +31 x187 +9 x197 +20 x207 -128 x7 <= +0
 c28: +7 x18 +11 x28 +15 x38 +12 x48 +7 x58 +33 x68 +7 x78 +20 x88 +9 x98 +11 x108 +14 x118 +17 x128 +20 x138
  +11 x148 +31 x158 +5 x168 +8 x178 +31 x188 +9 x198 +20 x208 -34 x8 <= +0
 c29: +7 x19 +11 x29 +15 x39 +12 x49 +7 x59 +33 x69 +7 x79 +20 x89 +9 x99 +11 x109 +14 x119 +17 x129 +20 x139
  +11 x149 +31 x159 +5 x169 +8 x179 +31 x189 +9 x199 +20 x209 -39 x9 <= +0
 c30: +153 x0 +359 x1 +151 x2 +174 x3 +201 x4 +119 x5 +130 x6 +128 x7 +34 x8 +39 x9 >= +298
 c31: +1 x10 -1 x0 <= +0
 c32: +1 x11 -1 x1 <= +0
 c33: +1 x12 -1 x2 <= +0
 c34: +1 x13 -1 x3 <= +0
 c35: +1 x14 -1 x4 <= +0
 c36: +1 x15 -1 x5 <= +0
 c37: +1 x16 -1 x6 <= +0
 c38: +1 x17 -1 x7 <= +0
 c39: +1 x18 -1 x8 <= +0
 c40: +1 x19 -1 x9 <= +0
 c41: +1 x20 -1 x0 <= +0
 c42: +1 x21 -1 x1 <= +0
 c43: +1 x22 -1 x2 <= +0
 c44: +1 x23 -1 x3 <= +0
 c45: +1 x24 -1 x4 <= +0
 c46: +1 x25 -1 x5 <= +0
 c47: +1 x26 -1 x6 <= +0
 c48: +1 x27 -1 x7 <= +0
 c49: +1 x28 -1 x8 <= +0
 c50: +1 x29 -1 x9 <= +0
 c51: +1 x30 -1 x0 <= +0
 c52: +1 x31 -1 x1 <= +0
 c53: +1 x32 -1 x2 <= +0
 c54: +1 x33 -1 x3 <= +0
 c55: +1 x34 -1 x4 <= +0
 c56: +1 x35 -1 x5 <= +0
 c57: +1 x36 -1 x6 <= +0
 c58: +1 x37 -1 x7 <= +0
 c59: +1 x38 -1 x8 <= +0
 c60: +1 x39 -1 x9 <= +0
 c61: +1 x40 -1 x0 <= +0
 c62: +1 x41 -1 x1 <= +0
 c63: +1 x42 -1 x2 <= +0
 c64: +1 x43 -1 x3 <= +0
 c65: +1 x44 -1 x4 <= +0
 c66: +1 x45 -1 x5 <= +0
 c67: +1 x46 -1 x6 <= +0
 c68: +1 x47 -1 x7 <= +0
 c69: +1 x48 -1 x8 <= +0
 c70: +1 x49 -1 x9 <= +0
 c71: +1 x50 -1 x0 <= +0
 c72: +1 x51 -1 x1 <= +0
 c73: +1 x52 -1 x2 <= +0
 c74: +1 x53 -1 x3 <= +0
 c75: +1 x54 -1 x4 <= +0
 c76: +1 x55 -1 x5 <= +0
 c77: +1 x56 -1 x6 <= +0
 c78: +1 x57 -1 x7 <= +0
 c79: +1 x58 -1 x8 <= +0
 c80: +1 x59 -1 x9 <= +0
 c81: +1 x60 -1 x0 <= +0
 c82: +1 x61 -1 x1 <= +0
 c83: +1 x62 -1 x2 <= +0
 c84: +1 x63 -1 x3 <= +0
 c85: +1 x64 -1 x4 <= +0
 c86: +1 x65 -1 x5 <= +0
 c87: +1 x66 -1 x6 <= +0
 c88: +1 x67 -1 x7 <= +0
 c89: +1 x68 -1 x8 <= +0
 c90: +1 x69 -1 x9 <= +0
 c91: +1 x70 -1 x0 <= +0
 c92: +1 x71 -1 x1 <= +0
 c93: +1 x72 -1 x2 <= +0
 c94: +1 x73 -1 x3 <= +0
 c95: +1 x74 -1 x4 <= +0
 c96: +1 x75 -1 x5 <= +0
 c97: +1 x76 -1 x6 <= +0
 c98: +1 x77 -1 x7 <= +0
 c99: +1 x78 -1 x8 <= +0
 c100: +1 x79 -1 x9 <= +0
 c101: +1 x80 -1 x0 <= +0
 c102: +1 x81 -1 x1 <= +0
 c103: +1 x82 -1 x2 <= +0
 c104: +1 x83 -1 x3 <= +0
 c105: +1 x84 -1 x4 <= +0
 c106: +1 x85 -1 x5 <= +0
 c107: +1 x86 -1 x6 <= +0
 c108: +1 x87 -1 x7 <= +0
 c109: +1 x88 -1 x8 <= +0
 c110: +1 x89 -1 x9 <= +0
 c111: +1 x90 -1 x0 <= +0
 c112: +1 x91 -1 x1 <= +0
 c113: +1 x92 -1 x2 <= +0
 c114: +1 x93 -1 x3 <= +0
 c115: +1 x94 -1 x4 <= +0
 c116: +1 x95 -1 x5 <= +0
 c117: +1 x96 -1 x6 <= +0
 c118: +1 x97 -1 x7 <= +0
 c119: +1 x98 -1 x8 <= +0
 c120: +1 x99 -1 x9 <= +0
 c121: +1 x100 -1 x0 <= +0
 c122: +1 x101 -1 x1 <= +0
 c123: +1 x102 -1 x2 <= +0
 c124: +1 x103 -1 x3 <= +0
 c125: +1 x104 -1 x4 <= +0
 c126: +1 x105 -1 x5 <= +0
 c127: +1 x106 -1 x6 <= +0
 c128: +1 x107 -1 x7 <= +0
 c129: +1 x108 -1 x8 <= +0
 c130: +1 x109 -1 x9 <= +0
 c131: +1 x110 -1 x0 <= +0
 c132: +1 x111 -1 x1 <= +0
 c133: +1 x112 -1 x2 <= +0
 c134: +1 x113 -1 x3 <= +0
 c135: +1 x114 -1 x4 <= +0
 c136: +1 x115 -1 x5 <= +0
 c137: +1 x116 -1 x6 <= +0
 c138: +1 x117 -1 x7 <= +0
 c139: +1 x118 -1 x8 <= +0
 c140: +1 x119 -1 x9 <= +0
 c141: +1 x120 -1 x0 <= +0
 c142: +1 x121 -1 x1 <= +0
 c143: +1 x122 -1 x2 <= +0
 c144: +1 x123 -1 x3 <= +0
 c145: +1 x124 -1 x4 <= +0
 c146: +1 x125 -1 x5 <= +0
 c147: +1 x126 -1 x6 <= +0
 c148: +1 x127 -1 x7 <= +0
 c149: +1 x128 -1 x8 <= +0
 c150: +1 x129 -1 x9 <= +0
 c151: +1 x130 -1 x0 <= +0
 c152: +1 x131 -1 x1 <= +0
 c153: +1 x132 -1 x2 <= +0
 c154: +1 x133 -1 x3 <= +0
 c155: +1 x134 -1 x4 <= +0
 c156: +1 x135 -1 x5 <= +0
 c157: +1 x136 -1 x6 <= +0
 c158: +1 x137 -1 x7 <= +0
 c159: +1 x138 -1 x8 <= +0
 c160: +1 x139 -1 x9 <= +0
 c161: +1 x140 -1 x0 <= +0
 c162: +1 x141 -1 x1 <= +0
 c163: +1 x142 -1 x2 <= +0
 c164: +1 x143 -1 x3 <= +0
 c165: +1 x144 -1 x4 <= +0
 c166: +1 x145 -1 x5 <= +0
 c167: +1 x146 -1 x6 <= +0
 c168: +1 x147 -1 x7 <= +0
 c169: +1 x148 -1 x8 <= +0
 c170: +1 x149 -1 x9 <= +0
 c171: +1 x150 -1 x0 <= +0
 c172: +1 x151 -1 x1 <= +0
 c173: +1 x152 -1 x2 <= +0
 c174: +1 x153 -1 x3 <= +0
 c175: +1 x154 -1 x4 <= +0
 c176: +1 x155 -1 x5 <= +0
 c177: +1 x156 -1 x6 <= +0
 c178: +1 x157 -1 x7 <= +0
 c179: +1 x158 -1 x8 <= +0
 c180: +1 x159 -1 x9 <= +0
 c181: +1 x160 -1 x0 <= +0
 c182: +1 x161 -1 x1 <= +0
 c183: +1 x162 -1 x2 <= +0
 c184: +1 x163 -1 x3 <= +0
 c185: +1 x164 -1 x4 <= +0
 c186: +1 x165 -1 x5 <= +0
 c187: +1 x166 -1 x6 <= +0
 c188: +1 x167 -1 x7 <= +0
 c189: +1 x168 -1 x8 <= +0
 c190: +1 x169 -1 x9 <= +0
 c191: +1 x170 -1 x0 <= +0
 c192: +1 x171 -1 x1 <= +0
 c193: +1 x172 -1 x2 <= +0
 c194: +1 x173 -1 x3 <= +0
 c195: +1 x174 -1 x4 <= +0
 c196: +1 x175 -1 x5 <= +0
 c197: +1 x176 -1 x6 <= +0
 c198: +1 x177 -1 x7 <= +0
 c199: +1 x178 -1 x8 <= +0
 c200: +1 x179 -1 x9 <= +0
 c201: +1 x180 -1 x0 <= +0
 c202: +1 x181 -1 x1 <= +0
 c203: +1 x182 -1 x2 <= +0
 c204: +1 x183 -1 x3 <= +0
 c205: +1 x184 -1 x4 <= +0
 c206: +1 x185 -1 x5 <= +0
 c207: +1 x186 -1 x6 <= +0
 c208: +1 x187 -1 x7 <= +0
 c209: +1 x188 -1 x8 <= +0
 c210: +1 x189 -1 x9 <= +0
 c211: +1 x190 -1 x0 <= +0
 c212: +1 x191 -1 x1 <= +0
 c213: +1 x192 -1 x2 <= +0
 c214: +1 x193 -1 x3 <= +0
 c215: +1 x194 -1 x4 <= +0
 c216: +1 x195 -1 x5 <= +0
 c217: +1 x196 -1 x6 <= +0
 c218: +1 x197 -1 x7 <= +0
 c219: +1 x198 -1 x8 <= +0
 c220: +1 x199 -1 x9 <= +0
 c221: +1 x200 -1 x0 <= +0
 c222: +1 x201 -1 x1 <= +0
 c223: +1 x202 -1 x2 <= +0
 c224: +1 x203 -1 x3 <= +0
 c225: +1 x204 -1 x4 <= +0
 c226: +1 x205 -1 x5 <= +0
 c227: +1 x206 -1 x6 <= +0
 c228: +1 x207 -1 x7 <= +0
 c229: +1 x208 -1 x8 <= +0
 c230: +1 x209 -1 x9 <= +0
Bounds
 0 <= x0 <= 1
 0 <= x1 <= 1
 0 <= x2 <= 1
 0 <= x3 <= 1
 0 <= x4 <= 1
 0 <= x5 <= 1
 0 <= x6 <= 1
 0 <= x7 <= 1
 0 <= x8 <= 1
 0 <= x9 <= 1
 0 <= x10 <= 1
 0 <= x11 <= 1
 0 <= x12 <= 1
 0 <= x13 <= 1
 0 <= x14 <= 1
 0 <= x15 <= 1
 0 <= x16 <= 1
 0 <= x17 <= 1
 0 <= x18 <= 1
 0 <= x19 <= 1
 0 <= x20 <= 1
 0 <= x21 <= 1
 0 <= x22 <= 1
 0 <= x23 <= 1
 0 <= x24 <= 1
 0 <= x25 <= 1
 0 <= x26 <= 1
 0 <= x27 <= 1
 0 <= x28 <= 1
 0 <= x29 <= 1
 0 <= x30 <= 1
 0 <= x31 <= 1
 0 <= x32 <= 1
 0 <= x33 <= 1
 0 <= x34 <= 1
 0 <= x35 <= 1
 0 <= x36 <= 1
 0 <= x37 <= 1
 0 <= x38 <= 1
 0 <= x39 <= 1
 0 <= x40 <= 1
 0 <= x41 <= 1
 0 <= x42 <= 1
 0 <= x43 <= 1
 0 <= x44 <= 1
 0 <= x45 <= 1
 0 <= x46 <= 1
 0 <= x47 <= 1
 0 <= x48 <= 1
 0 <= x49 <= 1
 0 <= x50 <= 1
 0 <= x51 <= 1
 0 <= x52 <= 1
 0 <= x53 <= 1
 0 <= x54 <= 1
 0 <= x55 <= 1
 0 <= x56 <= 1
 0 <= x57 <= 1
 0 <= x58 <= 1
 0 <= x59 <= 1
 0 <= x60 <= 1
 0 <= x61 <= 1
 0 <= x62 <= 1
 0 <= x63 <= 1
 0 <= x64 <= 1
 0 <= x65 <= 1
 0 <= x66 <= 1
 0 <= x67 <= 1
 0 <= x68 <= 1
 0 <= x69 <= 1
 0 <= x70 <= 1
 0 <= x71 <= 1
 0 <= x72 <= 1
 0 <= x73 <= 1
 0 <= x74 <= 1
 0 <= x75 <= 1
 0 <= x76 <= 1
 0 <= x77 <= 1
 0 <= x78 <= 1
 0 <= x79 <= 1
 0 <= x80 <= 1
 0 <= x81 <= 1
 0 <= x82 <= 1
 0 <= x83 <= 1
 0 <= x84 <= 1
 0 <= x85 <= 1
 0 <= x86 <= 1
 0 <= x87 <= 1
 0 <= x88 <= 1
 0 <= x89 <= 1
 0 <= x90 <= 1
 0 <= x91 <= 1
 0 <= x92 <= 1
 0 <= x93 <= 1
 0 <= x94 <= 1
 0 <= x95 <= 1
 0 <= x96 <= 1
 0 <= x97 <= 1
 0 <= x98 <= 1
 0 <= x99 <= 1
 0 <= x100 <= 1
 0 <= x101 <= 1
 0 <= x102 <= 1
 0 <= x103 <= 1
 0 <= x104 <= 1
 0 <= x105 <= 1
 0 <= x106 <= 1
 0 <= x107 <= 1
 0 <= x108 <= 1
 0 <= x109 <= 1
 0 <= x110 <= 1
 0 <= x111 <= 1
 0 <= x112 <= 1
 0 <= x113 <= 1
 0 <= x114 <= 1
 0 <= x115 <= 1
 0 <= x116 <= 1
 0 <= x117 <= 1
 0 <= x118 <= 1
 0 <= x119 <= 1
 0 <= x120 <= 1
 0 <= x121 <= 1
 0 <= x122 <= 1
 0 <= x123 <= 1
 0 <= x124 <= 1
 0 <= x125 <= 1
 0 <= x126 <= 1
 0 <= x127 <= 1
 0 <= x128 <= 1
 0 <= x129 <= 1
 0 <= x130 <= 1
 0 <= x131 <= 1
 0 <= x132 <= 1
 0 <= x133 <= 1
 0 <= x134 <= 1
 0 <= x135 <= 1
 0 <= x136 <= 1
 0 <= x137 <= 1
 0 <= x138 <= 1
 0 <= x139 <= 1
 0 <= x140 <= 1
 0 <= x141 <= 1
 0 <= x142 <= 1
 0 <= x143 <= 1
 0 <= x144 <= 1
 0 <= x145 <= 1
 0 <= x146 <= 1
 0 <= x147 <= 1
 0 <= x148 <= 1
 0 <= x149 <= 1
 0 <= x150 <= 1
 0 <= x151 <= 1
 0 <= x152 <= 1
 0 <= x153 <= 1
 0 <= x154 <= 1
 0 <= x155 <= 1
 0 <= x156 <= 1
 0 <= x157 <= 1
 0 <= x158 <= 1
 0 <= x159 <= 1
 0 <= x160 <= 1
 0 <= x161 <= 1
 0 <= x162 <= 1
 0 <= x163 <= 1
 0 <= x164 <= 1
 0 <= x165 <= 1
 0 <= x166 <= 1
 0 <= x167 <= 1
 0 <= x168 <= 1
 0 <= x169 <= 1
 0 <= x170 <= 1
 0 <= x171 <= 1
 0 <= x172 <= 1
 0 <= x173 <= 1
 0 <= x174 <= 1
 0 <= x175 <= 1
 0 <= x176 <= 1
 0 <= x177 <= 1
 0 <= x178 <= 1
 0 <= x179 <= 1
 0 <= x180 <= 1
 0 <= x181 <= 1
 0 <= x182 <= 1
 0 <= x183 <= 1
 0 <= x184 <= 1
 0 <= x185 <= 1
 0 <= x186 <= 1
 0 <= x187 <= 1
 0 <= x188 <= 1
 0 <= x189 <= 1
 0 <= x190 <= 1
 0 <= x191 <= 1
 0 <= x192 <= 1
 0 <= x193 <= 1
 0 <= x194 <= 1
 0 <= x195 <= 1
 0 <= x196 <= 1
 0 <= x197 <= 1
 0 <= x198 <= 1
 0 <= x199 <= 1
 0 <= x200 <= 1
 0 <= x201 <= 1
 0 <= x202 <= 1
 0 <= x203 <= 1
 0 <= x204 <= 1
 0 <= x205 <= 1
 0 <= x206 <= 1
 0 <= x207 <= 1
 0 <= x208 <= 1
 0 <= x209 <= 1
Binaries
 x0 x1 x2 x3 x4 x5 x6 x7 x8 x9 x10 x11 x12 x13 x14 x15 x16 x17 x18 x19 x20 x21 x22 x23 x24 x25 x26 x27
 x28 x29 x30 x31 x32 x33 x34 x35 x36 x37 x38 x39 x40 x41 x42 x43 x44 x45 x46 x47 x48 x49 x50 x51 x52 x53
 x54 x55 x56 x57 x58 x59 x60 x61 x62 x63 x64 x65 x66 x67 x68 x69 x70 x71 x72 x73 x74 x75 x76 x77 x78 x79
 x80 x81 x82 x83 x84 x85 x86 x87 x88 x89 x90 x91 x92 x93 x94 x95 x96 x97 x98 x99 x100 x101 x102 x103 x104
 x105 x106 x107 x108 x109 x110 x111 x112 x113 x114 x115 x116 x117 x118 x119 x120 x121 x122 x123 x124 x125
 x126 x127 x128 x129 x130 x131 x132 x133 x134 x135 x136 x137 x138 x139 x140 x141 x142 x143 x144 x145 x146
 x147 x148 x149 x150 x151 x152 x153 x154 x155 x156 x157 x158 x159 x160 x161 x162 x163 x164 x165 x166 x167
 x168 x169 x170 x171 x172 x173 x174 x175 x176 x177 x178 x179 x180 x181 x182 x183 x184 x185 x186 x187 x188
 x189 x190 x191 x192 x193 x194 x195 x196 x197 x198 x199 x200 x201 x202 x203 x204 x205 x206 x207 x208 x209
End
